c Sudoku solution
p cnf 729 0
156 0
181 0
232 0
274 0
285 0
333 0
399 0
429 0
441 0
512 0
548 0
566 0
631 0
642 0
665 0
689 0
559 0
713 0
776 0
816 0
946 0
436 0
696 0
386 0
226 0
822 0
857 0
467 0
894 0
914 0
971 0
879 0
861 0
721 0
591 0
987 0
737 0
939 0
838 0
925 0
845 0
795 0
883 0
355 0
251 0
311 0
584 0
454 0
653 0
535 0
624 0
523 0
418 0
617 0
482 0
678 0
577 0
115 0
134 0
219 0
963 0
268 0
475 0
493 0
173 0
297 0
243 0
372 0
198 0
162 0
364 0
347 0
149 0
127 0
328 0
744 0
769 0
788 0
992 0
752 0
958 0
